
Gurobi 10.0.1 (win64) logging started Sat Aug 26 22:38:17 2023

Set parameter LogFile to value "results//log/URT_08_makespan.log"
Gurobi Optimizer version 10.0.1 build v10.0.1rc0 (win64)

CPU model: AMD Ryzen 7 3700X 8-Core Processor, instruction set [SSE2|AVX|AVX2]
Thread count: 8 physical cores, 16 logical processors, using up to 16 threads

Optimize a model with 166 rows, 118 columns and 633 nonzeros
Model fingerprint: 0x8bd91fb6
Variable types: 18 continuous, 100 integer (99 binary)
Coefficient statistics:
  Matrix range     [1e+00, 1e+06]
  Objective range  [1e+00, 1e+00]
  Bounds range     [1e+00, 1e+00]
  RHS range        [1e+00, 3e+06]
Found heuristic solution: objective 90.0000000
Presolve removed 31 rows and 49 columns
Presolve time: 0.01s
Presolved: 135 rows, 69 columns, 582 nonzeros
Variable types: 18 continuous, 51 integer (50 binary)

Root relaxation: objective 2.700000e+01, 24 iterations, 0.00 seconds (0.00 work units)

    Nodes    |    Current Node    |     Objective Bounds      |     Work
 Expl Unexpl |  Obj  Depth IntInf | Incumbent    BestBd   Gap | It/Node Time

     0     0   27.00000    0    6   90.00000   27.00000  70.0%     -    0s
H    0     0                      61.0000000   27.00000  55.7%     -    0s
     0     0   27.00000    0    5   61.00000   27.00000  55.7%     -    0s
H    0     0                      52.0000000   28.00000  46.2%     -    0s
     0     0   28.00000    0   12   52.00000   28.00000  46.2%     -    0s
     0     0   29.02857    0    8   52.00000   29.02857  44.2%     -    0s
     0     0   29.65000    0    6   52.00000   29.65000  43.0%     -    0s
     0     0   29.65000    0    9   52.00000   29.65000  43.0%     -    0s
     0     0   29.65000    0   10   52.00000   29.65000  43.0%     -    0s
     0     0   29.65000    0   10   52.00000   29.65000  43.0%     -    0s
     0     0   29.71875    0   10   52.00000   29.71875  42.8%     -    0s
H    0     0                      51.0000000   29.71875  41.7%     -    0s
H    0     0                      49.0000000   29.71875  39.3%     -    0s
     0     0   29.71875    0   13   49.00000   29.71875  39.3%     -    0s
     0     0   30.00000    0   13   49.00000   30.00000  38.8%     -    0s
     0     0   30.18691    0   12   49.00000   30.18691  38.4%     -    0s
     0     0   30.22496    0   13   49.00000   30.22496  38.3%     -    0s
     0     0   30.26327    0   12   49.00000   30.26327  38.2%     -    0s
     0     0   30.26327    0   12   49.00000   30.26327  38.2%     -    0s
     0     0   30.44199    0   12   49.00000   30.44199  37.9%     -    0s
     0     0   30.44199    0   11   49.00000   30.44199  37.9%     -    0s
     0     0   30.47444    0   10   49.00000   30.47444  37.8%     -    0s
     0     0   30.91667    0   10   49.00000   30.91667  36.9%     -    0s
     0     0   31.00000    0    8   49.00000   31.00000  36.7%     -    0s
     0     0   31.00000    0    9   49.00000   31.00000  36.7%     -    0s
     0     0   31.00000    0   11   49.00000   31.00000  36.7%     -    0s
     0     0   31.00000    0   12   49.00000   31.00000  36.7%     -    0s
     0     0   31.00000    0   11   49.00000   31.00000  36.7%     -    0s
     0     0   31.00000    0   12   49.00000   31.00000  36.7%     -    0s
     0     0   31.00000    0   12   49.00000   31.00000  36.7%     -    0s
     0     0   32.00000    0   13   49.00000   32.00000  34.7%     -    0s
     0     0   32.00000    0    9   49.00000   32.00000  34.7%     -    0s
     0     1   32.00000    0    9   49.00000   32.00000  34.7%     -    0s

Cutting planes:
  Learned: 24
  Gomory: 2
  Cover: 1
  Implied bound: 3
  MIR: 23
  StrongCG: 2
  Flow cover: 16

Explored 213 nodes (1747 simplex iterations) in 0.34 seconds (0.04 work units)
Thread count was 16 (of 16 available processors)

Solution count 5: 49 51 52 ... 90

Optimal solution found (tolerance 1.00e-04)
Best objective 4.900000000000e+01, best bound 4.900000000000e+01, gap 0.0000%
Warning: constraint name "precedence between 0,1 to 0,0 if x_[j,l,h,z,i]=1" has a space
Warning: constraint name "precedence between 0,1 to 0,0 if x_[j,l,h,z,i]=1" has a space
Warning: default constraint names used to write mps file
